;; sat

(declare-const x1 sl.list.loc)
(declare-const x2 sl.list.loc)
(declare-const x3 sl.list.loc)
(declare-const x4 sl.list.loc)
(declare-const x5 sl.list.loc)
(declare-const x6 sl.list.loc)
(declare-const x7 sl.list.loc)
(declare-const x8 sl.list.loc)
(declare-const x9 sl.list.loc)
(declare-const x10 sl.list.loc)

(assert (sl.sepcon (sl.sepcon (sl.sepcon (sl.sepcon (sl.sepcon (sl.sepcon (sl.sepcon (sl.sepcon (sl.list.eq sl.list.null sl.list.null)
 (sl.list.neq x6 x8)
)
 (sl.list.neq x1 x4)
)
 (sl.list.neq x1 x9)
)
 (sl.list.neq x3 x7)
)
 (sl.list.neq x7 x10)
)
 (sl.list.neq x9 x10)
)
 (sl.list.neq x2 x9)
)
 (sl.sepcon (sl.sepcon (sl.sepcon (sl.list.seg x5 x7)
 (sl.list.seg x2 x7)
)
 (sl.list.seg x10 x4)
)
 (sl.list.seg x7 x8)
)
)
)

